NAME: C205
COMMENT: converted from Solomon txt
TYPE: VRPTW
VEHICLES: 25
DIMENSION: 101
CAPACITY: 700
EDGE_WEIGHT_TYPE: EUC_2D
NODE_COORD_SECTION
1	40.0	50.0
2	52.0	75.0
3	45.0	70.0
4	62.0	69.0
5	60.0	66.0
6	42.0	65.0
7	16.0	42.0
8	58.0	70.0
9	34.0	60.0
10	28.0	70.0
11	35.0	66.0
12	35.0	69.0
13	25.0	85.0
14	22.0	75.0
15	22.0	85.0
16	20.0	80.0
17	20.0	85.0
18	18.0	75.0
19	15.0	75.0
20	15.0	80.0
21	30.0	50.0
22	30.0	56.0
23	28.0	52.0
24	14.0	66.0
25	25.0	50.0
26	22.0	66.0
27	8.0	62.0
28	23.0	52.0
29	4.0	55.0
30	20.0	50.0
31	20.0	55.0
32	10.0	35.0
33	10.0	40.0
34	8.0	40.0
35	8.0	45.0
36	5.0	35.0
37	5.0	45.0
38	2.0	40.0
39	0.0	40.0
40	0.0	45.0
41	36.0	18.0
42	35.0	32.0
43	33.0	32.0
44	33.0	35.0
45	32.0	20.0
46	30.0	30.0
47	34.0	25.0
48	30.0	35.0
49	36.0	40.0
50	48.0	20.0
51	26.0	32.0
52	25.0	30.0
53	25.0	35.0
54	44.0	5.0
55	42.0	10.0
56	42.0	15.0
57	40.0	5.0
58	38.0	15.0
59	38.0	5.0
60	38.0	10.0
61	35.0	5.0
62	50.0	30.0
63	50.0	35.0
64	50.0	40.0
65	48.0	30.0
66	44.0	25.0
67	47.0	35.0
68	47.0	40.0
69	42.0	30.0
70	45.0	35.0
71	95.0	30.0
72	95.0	35.0
73	53.0	30.0
74	92.0	30.0
75	53.0	35.0
76	45.0	65.0
77	90.0	35.0
78	72.0	45.0
79	78.0	40.0
80	87.0	30.0
81	85.0	25.0
82	85.0	35.0
83	75.0	55.0
84	72.0	55.0
85	70.0	58.0
86	86.0	46.0
87	66.0	55.0
88	64.0	46.0
89	65.0	60.0
90	56.0	64.0
91	60.0	55.0
92	60.0	60.0
93	67.0	85.0
94	42.0	58.0
95	65.0	82.0
96	62.0	80.0
97	62.0	40.0
98	60.0	85.0
99	58.0	75.0
100	55.0	80.0
101	55.0	85.0
DEMAND_SECTION
1	0
2	10
3	30
4	10
5	10
6	10
7	20
8	20
9	20
10	10
11	10
12	10
13	20
14	30
15	10
16	40
17	40
18	20
19	20
20	10
21	10
22	20
23	20
24	10
25	10
26	40
27	10
28	10
29	20
30	10
31	10
32	20
33	30
34	40
35	20
36	10
37	10
38	20
39	30
40	20
41	10
42	10
43	20
44	10
45	10
46	10
47	30
48	10
49	10
50	10
51	10
52	10
53	10
54	20
55	40
56	10
57	30
58	40
59	30
60	10
61	20
62	10
63	20
64	50
65	10
66	10
67	10
68	10
69	10
70	10
71	30
72	20
73	10
74	10
75	50
76	20
77	10
78	10
79	20
80	10
81	10
82	30
83	20
84	10
85	20
86	30
87	10
88	20
89	30
90	10
91	10
92	10
93	20
94	40
95	10
96	30
97	10
98	30
99	20
100	10
101	20
DEPOT_SECTION
1
TIME_WINDOW_SECTION
1	0.0	3390.0
2	231.0	551.0
3	133.0	453.0
4	1087.0	1407.0
5	1181.0	1501.0
6	15.0	335.0
7	417.0	737.0
8	993.0	1313.0
9	2807.0	3127.0
10	2521.0	2841.0
11	2711.0	3031.0
12	2618.0	2938.0
13	2039.0	2359.0
14	2325.0	2645.0
15	1946.0	2266.0
16	2136.0	2456.0
17	1854.0	2174.0
18	2231.0	2551.0
19	1662.0	1982.0
20	1757.0	2077.0
21	10.0	330.0
22	2903.0	3223.0
23	12.0	332.0
24	1563.0	1883.0
25	36.0	356.0
26	2424.0	2744.0
27	1465.0	1785.0
28	129.0	449.0
29	1367.0	1687.0
30	318.0	638.0
31	223.0	543.0
32	701.0	1021.0
33	513.0	833.0
34	605.0	925.0
35	1266.0	1586.0
36	796.0	1116.0
37	1173.0	1493.0
38	891.0	1211.0
39	983.0	1303.0
40	1078.0	1398.0
41	1739.0	2059.0
42	2678.0	2998.0
43	2586.0	2906.0
44	2493.0	2813.0
45	1833.0	2153.0
46	2025.0	2345.0
47	1929.0	2249.0
48	2400.0	2720.0
49	2776.0	3096.0
50	887.0	1207.0
51	2212.0	2532.0
52	2120.0	2440.0
53	2305.0	2625.0
54	1176.0	1496.0
55	1080.0	1400.0
56	985.0	1305.0
57	1270.0	1590.0
58	1645.0	1965.0
59	1362.0	1682.0
60	1550.0	1870.0
61	1455.0	1775.0
62	321.0	641.0
63	40.0	360.0
64	14.0	334.0
65	413.0	733.0
66	791.0	1111.0
67	508.0	828.0
68	12.0	332.0
69	696.0	1016.0
70	600.0	920.0
71	2241.0	2561.0
72	2146.0	2466.0
73	228.0	548.0
74	2334.0	2654.0
75	133.0	453.0
76	38.0	358.0
77	2051.0	2371.0
78	2820.0	3140.0
79	2722.0	3042.0
80	2528.0	2848.0
81	2433.0	2753.0
82	2623.0	2943.0
83	1845.0	2165.0
84	1752.0	2072.0
85	1561.0	1881.0
86	1949.0	2269.0
87	1656.0	1976.0
88	2955.0	3275.0
89	1466.0	1786.0
90	1275.0	1595.0
91	2959.0	3279.0
92	1371.0	1691.0
93	614.0	934.0
94	8.0	328.0
95	708.0	1028.0
96	801.0	1121.0
97	2921.0	3241.0
98	517.0	837.0
99	898.0	1218.0
100	327.0	647.0
101	422.0	742.0
SERVICE_TIME_SECTION
1	0.0
2	90.0
3	90.0
4	90.0
5	90.0
6	90.0
7	90.0
8	90.0
9	90.0
10	90.0
11	90.0
12	90.0
13	90.0
14	90.0
15	90.0
16	90.0
17	90.0
18	90.0
19	90.0
20	90.0
21	90.0
22	90.0
23	90.0
24	90.0
25	90.0
26	90.0
27	90.0
28	90.0
29	90.0
30	90.0
31	90.0
32	90.0
33	90.0
34	90.0
35	90.0
36	90.0
37	90.0
38	90.0
39	90.0
40	90.0
41	90.0
42	90.0
43	90.0
44	90.0
45	90.0
46	90.0
47	90.0
48	90.0
49	90.0
50	90.0
51	90.0
52	90.0
53	90.0
54	90.0
55	90.0
56	90.0
57	90.0
58	90.0
59	90.0
60	90.0
61	90.0
62	90.0
63	90.0
64	90.0
65	90.0
66	90.0
67	90.0
68	90.0
69	90.0
70	90.0
71	90.0
72	90.0
73	90.0
74	90.0
75	90.0
76	90.0
77	90.0
78	90.0
79	90.0
80	90.0
81	90.0
82	90.0
83	90.0
84	90.0
85	90.0
86	90.0
87	90.0
88	90.0
89	90.0
90	90.0
91	90.0
92	90.0
93	90.0
94	90.0
95	90.0
96	90.0
97	90.0
98	90.0
99	90.0
100	90.0
101	90.0
EOF
